% seed = 8911467

mint = 52;
% maxt = 114;

nActs = 22;
dur = [0,10,3,3,8,10,10,9,7,2,4,8,7,5,1,7,7,2,1,3,7,0];

nSkills = 4;
sreq = [| 0,0,0,0,
	| 0,3,2,1,
	| 2,0,0,1,
	| 2,2,0,2,
	| 3,3,3,0,
	| 2,1,3,2,
	| 2,1,3,1,
	| 0,3,2,2,
	| 2,0,0,3,
	| 0,2,0,3,
	| 1,2,2,2,
	| 3,0,0,3,
	| 3,3,1,2,
	| 3,1,1,0,
	| 3,2,0,1,
	| 2,0,3,1,
	| 3,0,0,3,
	| 0,0,3,3,
	| 2,0,2,0,
	| 0,3,0,2,
	| 0,0,2,2,
	| 0,0,0,0, |];

nResources = 25;
mastery = [| true,true,false,false,
	| false,true,true,true,
	| false,false,false,true,
	| true,true,true,false,
	| false,true,true,true,
	| true,true,false,true,
	| true,true,true,false,
	| true,false,false,true,
	| false,false,true,true,
	| false,false,false,true,
	| false,false,true,false,
	| false,false,true,true,
	| false,false,true,false,
	| false,true,false,true,
	| true,false,false,true,
	| false,true,true,false,
	| true,true,false,false,
	| false,true,false,false,
	| false,false,true,true,
	| true,true,true,false,
	| false,true,true,false,
	| false,true,false,true,
	| true,true,true,false,
	| false,true,true,true,
	| true,true,true,false, |];

nPrecs = 43;
pred = [1,1,1,2,2,2,3,3,4,4,4,5,5,6,6,6,7,7,7,8,9,9,9,10,10,10,11,11,12,12,13,14,14,14,15,15,16,17,18,18,19,20,21];
succ = [2,3,4,18,11,5,9,10,18,6,7,15,8,10,11,15,9,11,12,10,17,20,15,12,21,14,13,16,20,13,17,17,20,16,21,16,19,19,19,21,22,22,22];

nUnrels = 74;
unpred = [2,2,2,2,2,3,3,3,3,3,3,3,4,4,5,5,5,5,5,6,6,6,6,7,7,7,7,8,8,8,8,9,9,9,9,9,9,10,10,10,11,11,11,11,11,11,12,12,12,12,12,13,13,13,13,13,13,14,14,14,15,15,15,16,16,16,16,17,17,17,18,19,19,20];
unsucc = [3,4,6,7,9,4,5,6,7,8,11,18,5,8,6,7,9,11,18,7,8,9,18,8,10,14,18,9,11,15,18,10,11,12,13,14,18,11,15,18,12,14,15,18,20,21,14,15,16,18,21,14,15,16,18,20,21,15,18,21,17,18,20,17,18,20,21,18,20,21,20,20,21,21];

USEFUL_RES = [{},
	{1,2,3,4,5,6,7,8,9,10,11,12,13,14,15,16,17,18,19,20,21,22,23,24,25},
	{1,2,3,4,5,6,7,8,9,10,12,14,15,17,19,20,22,23,24,25},
	{1,2,3,4,5,6,7,8,9,10,12,14,15,16,17,18,19,20,21,22,23,24,25},
	{1,2,4,5,6,7,8,9,11,12,13,14,15,16,17,18,19,20,21,22,23,24,25},
	{1,2,3,4,5,6,7,8,9,10,11,12,13,14,15,16,17,18,19,20,21,22,23,24,25},
	{1,2,3,4,5,6,7,8,9,10,11,12,13,14,15,16,17,18,19,20,21,22,23,24,25},
	{1,2,3,4,5,6,7,8,9,10,11,12,13,14,15,16,17,18,19,20,21,22,23,24,25},
	{1,2,3,4,5,6,7,8,9,10,12,14,15,17,19,20,22,23,24,25},
	{1,2,3,4,5,6,7,8,9,10,12,14,15,16,17,18,19,20,21,22,23,24,25},
	{1,2,3,4,5,6,7,8,9,10,11,12,13,14,15,16,17,18,19,20,21,22,23,24,25},
	{1,2,3,4,5,6,7,8,9,10,12,14,15,17,19,20,22,23,24,25},
	{1,2,3,4,5,6,7,8,9,10,11,12,13,14,15,16,17,18,19,20,21,22,23,24,25},
	{1,2,4,5,6,7,8,9,11,12,13,14,15,16,17,18,19,20,21,22,23,24,25},
	{1,2,3,4,5,6,7,8,9,10,12,14,15,16,17,18,19,20,21,22,23,24,25},
	{1,2,3,4,5,6,7,8,9,10,11,12,13,14,15,16,17,19,20,21,22,23,24,25},
	{1,2,3,4,5,6,7,8,9,10,12,14,15,17,19,20,22,23,24,25},
	{2,3,4,5,6,7,8,9,10,11,12,13,14,15,16,19,20,21,22,23,24,25},
	{1,2,4,5,6,7,8,9,11,12,13,15,16,17,19,20,21,23,24,25},
	{1,2,3,4,5,6,7,8,9,10,12,14,15,16,17,18,19,20,21,22,23,24,25},
	{2,3,4,5,6,7,8,9,10,11,12,13,14,15,16,19,20,21,22,23,24,25},
	{}];

POTENTIAL_ACT = [{2,3,4,5,6,7,8,9,10,11,12,13,14,15,16,17,19,20},
	{2,3,4,5,6,7,8,9,10,11,12,13,14,15,16,17,18,19,20,21},
	{2,3,4,6,7,8,9,10,11,12,13,15,16,17,18,20,21},
	{2,3,4,5,6,7,8,9,10,11,12,13,14,15,16,17,18,19,20,21},
	{2,3,4,5,6,7,8,9,10,11,12,13,14,15,16,17,18,19,20,21},
	{2,3,4,5,6,7,8,9,10,11,12,13,14,15,16,17,18,19,20,21},
	{2,3,4,5,6,7,8,9,10,11,12,13,14,15,16,17,18,19,20,21},
	{2,3,4,5,6,7,8,9,10,11,12,13,14,15,16,17,18,19,20,21},
	{2,3,4,5,6,7,8,9,10,11,12,13,14,15,16,17,18,19,20,21},
	{2,3,4,6,7,8,9,10,11,12,13,15,16,17,18,20,21},
	{2,5,6,7,8,11,13,14,16,18,19,21},
	{2,3,4,5,6,7,8,9,10,11,12,13,14,15,16,17,18,19,20,21},
	{2,5,6,7,8,11,13,14,16,18,19,21},
	{2,3,4,5,6,7,8,9,10,11,12,13,14,15,16,17,18,20,21},
	{2,3,4,5,6,7,8,9,10,11,12,13,14,15,16,17,18,19,20,21},
	{2,4,5,6,7,8,10,11,13,14,15,16,18,19,20,21},
	{2,3,4,5,6,7,8,9,10,11,12,13,14,15,16,17,19,20},
	{2,4,5,6,7,8,10,11,13,14,15,20},
	{2,3,4,5,6,7,8,9,10,11,12,13,14,15,16,17,18,19,20,21},
	{2,3,4,5,6,7,8,9,10,11,12,13,14,15,16,17,18,19,20,21},
	{2,4,5,6,7,8,10,11,13,14,15,16,18,19,20,21},
	{2,3,4,5,6,7,8,9,10,11,12,13,14,15,16,17,18,20,21},
	{2,3,4,5,6,7,8,9,10,11,12,13,14,15,16,17,18,19,20,21},
	{2,3,4,5,6,7,8,9,10,11,12,13,14,15,16,17,18,19,20,21},
	{2,3,4,5,6,7,8,9,10,11,12,13,14,15,16,17,18,19,20,21}];
